c FILE: i160-214

c SOURCE: From steinlib

c DESCRIPTION: Steinlib instance with 160 nodes and 812 edges.

p edge 160 812
e 1 17
e 1 21
e 1 22
e 1 28
e 1 51
e 1 65
e 1 70
e 1 72
e 1 83
e 1 109
e 1 158
e 1 160
e 2 16
e 2 21
e 2 92
e 2 93
e 2 101
e 2 115
e 2 121
e 2 122
e 2 143
e 2 157
e 2 158
e 3 23
e 3 26
e 3 27
e 3 44
e 3 51
e 3 86
e 3 88
e 3 96
e 3 114
e 3 130
e 3 140
e 3 142
e 3 157
e 4 66
e 4 76
e 4 90
e 4 91
e 4 102
e 4 108
e 4 109
e 4 113
e 4 120
e 4 125
e 4 156
e 5 12
e 5 14
e 5 45
e 5 47
e 5 59
e 5 69
e 5 76
e 5 97
e 5 121
e 5 140
e 5 152
e 6 30
e 6 33
e 6 50
e 6 56
e 6 73
e 6 78
e 6 83
e 6 112
e 7 49
e 7 51
e 7 54
e 7 67
e 7 88
e 7 116
e 7 123
e 7 152
e 8 60
e 8 62
e 8 78
e 8 87
e 8 89
e 8 107
e 8 124
e 9 36
e 9 55
e 9 59
e 9 79
e 9 84
e 9 89
e 9 91
e 9 96
e 9 100
e 9 104
e 9 111
e 9 120
e 9 145
e 9 151
e 9 157
e 10 28
e 10 34
e 10 51
e 10 57
e 10 71
e 10 74
e 10 83
e 10 101
e 10 149
e 10 159
e 11 28
e 11 29
e 11 77
e 11 96
e 11 104
e 11 126
e 12 68
e 12 74
e 12 78
e 12 87
e 12 94
e 12 120
e 12 132
e 12 140
e 13 33
e 13 35
e 13 39
e 13 48
e 13 66
e 13 73
e 13 97
e 13 110
e 13 118
e 13 132
e 13 145
e 13 152
e 13 153
e 14 21
e 14 64
e 14 141
e 14 147
e 14 157
e 15 36
e 15 37
e 15 77
e 15 86
e 15 103
e 15 139
e 15 145
e 15 151
e 15 160
e 16 18
e 16 39
e 16 40
e 16 67
e 16 70
e 16 105
e 16 114
e 16 129
e 17 28
e 17 31
e 17 45
e 17 60
e 17 74
e 17 76
e 17 78
e 17 95
e 17 112
e 17 131
e 17 141
e 18 39
e 18 44
e 18 82
e 18 107
e 18 109
e 18 121
e 18 139
e 19 50
e 19 82
e 19 115
e 20 31
e 20 42
e 20 45
e 20 52
e 20 114
e 20 117
e 21 23
e 21 35
e 21 49
e 21 94
e 21 101
e 21 105
e 21 111
e 21 122
e 21 129
e 21 132
e 21 144
e 22 24
e 22 46
e 22 56
e 22 62
e 22 64
e 22 108
e 22 113
e 23 31
e 23 47
e 23 91
e 23 93
e 23 105
e 24 26
e 24 31
e 24 32
e 24 58
e 24 59
e 24 62
e 24 97
e 24 145
e 25 86
e 25 87
e 25 90
e 25 92
e 25 94
e 25 113
e 25 121
e 25 125
e 25 146
e 26 27
e 26 43
e 26 45
e 26 56
e 26 64
e 26 69
e 26 73
e 26 79
e 26 89
e 26 90
e 26 95
e 26 123
e 26 142
e 27 30
e 27 38
e 27 50
e 27 52
e 27 68
e 27 93
e 27 100
e 28 47
e 28 84
e 28 89
e 28 91
e 28 117
e 28 138
e 28 152
e 28 160
e 29 40
e 29 108
e 29 125
e 29 134
e 29 151
e 29 153
e 30 39
e 30 43
e 30 79
e 30 92
e 30 106
e 30 117
e 30 123
e 30 141
e 30 146
e 30 157
e 31 36
e 31 57
e 31 65
e 31 72
e 31 75
e 31 77
e 31 80
e 31 92
e 31 96
e 31 116
e 31 120
e 31 128
e 31 132
e 31 137
e 31 139
e 32 73
e 32 75
e 32 91
e 32 99
e 32 117
e 33 40
e 33 44
e 33 73
e 33 89
e 33 119
e 33 137
e 34 38
e 34 58
e 34 93
e 34 96
e 34 107
e 34 111
e 34 120
e 34 140
e 34 149
e 34 156
e 35 83
e 35 126
e 35 131
e 35 135
e 35 140
e 35 145
e 36 42
e 36 48
e 36 55
e 36 75
e 36 95
e 36 123
e 36 128
e 36 139
e 37 52
e 37 59
e 37 64
e 37 71
e 37 78
e 37 95
e 37 98
e 37 102
e 37 111
e 37 122
e 37 129
e 37 142
e 37 145
e 37 148
e 37 153
e 38 40
e 38 62
e 38 67
e 38 69
e 38 70
e 38 84
e 38 85
e 38 103
e 38 106
e 38 114
e 38 138
e 39 58
e 39 73
e 39 109
e 39 110
e 39 141
e 39 158
e 40 57
e 40 85
e 40 86
e 40 103
e 40 120
e 40 144
e 40 149
e 40 150
e 41 66
e 41 74
e 41 98
e 42 74
e 42 78
e 42 95
e 42 108
e 42 114
e 42 118
e 42 141
e 42 143
e 42 154
e 43 62
e 43 95
e 43 112
e 43 116
e 43 119
e 43 121
e 43 140
e 43 155
e 44 60
e 44 62
e 44 63
e 44 94
e 44 114
e 44 117
e 44 124
e 44 135
e 45 59
e 45 61
e 45 130
e 45 133
e 45 146
e 46 70
e 46 98
e 46 116
e 46 123
e 46 124
e 46 144
e 47 85
e 47 99
e 47 124
e 47 133
e 47 139
e 47 155
e 47 158
e 48 52
e 48 70
e 48 88
e 48 98
e 48 136
e 48 139
e 48 144
e 49 59
e 49 74
e 49 81
e 49 116
e 49 136
e 49 158
e 50 52
e 50 53
e 50 61
e 50 69
e 50 87
e 50 88
e 50 113
e 50 131
e 50 139
e 51 53
e 51 75
e 51 90
e 51 114
e 52 65
e 52 82
e 52 88
e 52 89
e 52 93
e 52 114
e 52 159
e 53 55
e 53 74
e 53 94
e 53 105
e 53 106
e 53 128
e 53 130
e 53 135
e 54 62
e 54 66
e 54 74
e 54 88
e 54 91
e 54 127
e 54 128
e 54 131
e 54 150
e 54 160
e 55 57
e 55 81
e 55 85
e 55 87
e 55 88
e 55 97
e 55 159
e 55 160
e 56 91
e 56 120
e 56 124
e 56 149
e 57 61
e 57 132
e 57 159
e 58 62
e 58 65
e 58 77
e 58 83
e 58 87
e 58 94
e 58 119
e 58 123
e 59 99
e 59 103
e 59 110
e 59 114
e 59 119
e 59 121
e 59 140
e 59 154
e 60 61
e 60 103
e 60 144
e 60 148
e 61 115
e 61 122
e 61 132
e 61 133
e 61 138
e 61 159
e 62 70
e 62 77
e 62 91
e 62 143
e 62 145
e 62 158
e 63 66
e 63 87
e 63 98
e 63 111
e 63 112
e 63 129
e 64 82
e 64 112
e 64 132
e 65 90
e 65 92
e 65 116
e 65 122
e 65 148
e 66 69
e 66 86
e 66 91
e 66 136
e 66 138
e 66 156
e 66 160
e 67 103
e 67 109
e 67 111
e 67 141
e 67 150
e 68 87
e 68 126
e 68 132
e 68 137
e 68 156
e 69 88
e 69 91
e 69 94
e 69 123
e 69 128
e 69 141
e 70 78
e 70 91
e 70 102
e 70 109
e 70 123
e 70 141
e 70 147
e 70 155
e 71 81
e 71 93
e 71 112
e 71 140
e 71 149
e 72 76
e 72 93
e 72 102
e 72 130
e 72 147
e 72 152
e 73 83
e 73 96
e 73 97
e 73 122
e 73 123
e 73 130
e 73 150
e 73 154
e 74 75
e 74 91
e 74 113
e 74 117
e 75 78
e 75 86
e 75 93
e 75 107
e 75 127
e 75 144
e 76 79
e 76 122
e 76 142
e 76 159
e 77 84
e 77 86
e 77 106
e 77 129
e 77 136
e 77 156
e 77 160
e 78 104
e 78 136
e 78 154
e 79 89
e 79 94
e 79 131
e 80 84
e 80 95
e 80 114
e 80 120
e 80 124
e 80 138
e 81 97
e 81 106
e 81 115
e 81 116
e 81 118
e 81 137
e 81 145
e 81 146
e 81 147
e 82 87
e 82 104
e 82 119
e 82 121
e 82 131
e 82 146
e 82 152
e 83 110
e 83 140
e 84 100
e 84 107
e 84 120
e 84 121
e 84 136
e 84 149
e 85 93
e 85 95
e 85 125
e 85 136
e 85 147
e 86 106
e 86 107
e 86 134
e 87 125
e 87 143
e 87 148
e 88 109
e 88 122
e 88 138
e 88 150
e 89 98
e 89 99
e 89 100
e 89 112
e 89 116
e 89 120
e 89 137
e 89 153
e 90 95
e 90 100
e 90 152
e 90 159
e 91 94
e 91 102
e 91 108
e 91 110
e 91 130
e 91 132
e 91 151
e 92 107
e 92 125
e 92 136
e 92 139
e 92 143
e 92 151
e 92 156
e 93 105
e 93 113
e 93 144
e 93 156
e 94 102
e 94 115
e 94 124
e 94 147
e 95 103
e 95 110
e 95 115
e 95 149
e 96 111
e 96 117
e 96 120
e 96 123
e 96 127
e 96 133
e 96 135
e 97 99
e 97 111
e 97 116
e 97 119
e 97 126
e 97 127
e 97 133
e 97 154
e 97 160
e 98 101
e 98 123
e 98 134
e 98 135
e 98 145
e 98 146
e 99 101
e 99 130
e 99 146
e 100 104
e 100 121
e 101 123
e 101 135
e 101 154
e 101 156
e 102 119
e 102 149
e 103 104
e 103 109
e 104 107
e 104 112
e 104 137
e 104 153
e 104 155
e 105 109
e 105 112
e 105 118
e 105 140
e 105 141
e 105 148
e 106 118
e 106 121
e 106 128
e 106 156
e 107 123
e 107 130
e 107 138
e 107 145
e 108 139
e 109 120
e 109 131
e 109 151
e 109 156
e 110 120
e 111 112
e 111 141
e 111 144
e 111 159
e 112 116
e 112 157
e 113 155
e 114 129
e 115 131
e 115 135
e 115 146
e 115 153
e 116 127
e 116 133
e 116 134
e 116 137
e 117 146
e 118 130
e 118 136
e 118 148
e 119 135
e 119 142
e 119 159
e 120 148
e 120 152
e 121 123
e 121 132
e 122 140
e 122 142
e 122 148
e 123 157
e 124 125
e 124 128
e 124 143
e 124 151
e 125 132
e 125 152
e 126 141
e 126 149
e 126 160
e 128 131
e 128 153
e 129 138
e 129 141
e 129 143
e 130 155
e 132 144
e 132 146
e 134 135
e 134 155
e 135 140
e 135 144
e 135 150
e 135 153
e 136 143
e 136 157
e 137 152
e 138 158
e 139 148
e 139 153
e 139 155
e 140 149
e 141 158
e 142 149
e 143 154
e 143 159
e 146 153
e 146 157
e 147 152
e 148 150
e 149 156
e 149 157
e 150 153
e 150 155
e 151 157
e 153 155
e 155 157
e 158 160
